unsat
(:SPACER-conj                         6
 :SPACER-inductive-gen                24
 :SPACER-inductive-gen-weaken-fail    24
 :SPACER-inductive-level              8
 :SPACER-max-depth                    10
 :SPACER-max-query-lvl                10
 :SPACER-non-local-gen                21
 :SPACER-num-active-lemmas            16
 :SPACER-num-ctp-blocked              24
 :SPACER-num-invariants               11
 :SPACER-num-is_invariant             72
 :SPACER-num-lemma-jumped             2
 :SPACER-num-lemmas                   52
 :SPACER-num-pobs                     16
 :SPACER-num-propagations             19
 :SPACER-num-queries                  24
 :SPACER-subsume-pob                  2
 :SPACER-subsume-success              4
 :added-eqs                           2838
 :arith-assert-diseq                  324
 :arith-assert-lower                  3488
 :arith-assert-upper                  5104
 :arith-bound-prop                    270
 :arith-conflicts                     86
 :arith-eq-adapter                    662
 :arith-fixed-eqs                     550
 :arith-num-rows                      48
 :arith-offset-eqs                    180
 :arith-pivots                        514
 :arith-row-summations                1604
 :arith-tableau-max-columns           102
 :arith-tableau-max-rows              48
 :conflicts                           492
 :decisions                           3354
 :del-clause                          714
 :final-checks                        134
 :iuc_solver.num_proxies              57
 :max-memory                          32.22
 :memory                              31.75
 :minimized-lits                      54
 :mk-bool-var                         2310
 :mk-clause                           1730
 :num-allocs                          39252326
 :num-checks                          444
 :pool_solver.checks                  222
 :pool_solver.checks.sat              63
 :pool_solver.checks.undef            4
 :propagations                        20166
 :rlimit-count                        132243
 :time                                0.16
 :time.iuc_solver.get_iuc             0.03
 :time.iuc_solver.get_iuc.hyp_reduce1 0.01
 :time.iuc_solver.get_iuc.hyp_reduce2 0.01
 :time.iuc_solver.get_iuc.learn_core  0.01
 :time.pool_solver.proof              0.00
 :time.pool_solver.smt.total          0.05
 :time.pool_solver.smt.total.sat      0.01
 :time.spacer.ctp                     0.00
 :time.spacer.init_rules              0.00
 :time.spacer.mbp                     0.00
 :time.spacer.solve                   0.14
 :time.spacer.solve.propagate         0.02
 :time.spacer.solve.reach             0.12
 :time.spacer.solve.reach.children    0.01
 :time.spacer.solve.reach.cluster     0.02
 :time.spacer.solve.reach.gen.global  0.02
 :time.spacer.solve.reach.gen.ind     0.01
 :time.spacer.solve.reach.is-reach    0.00)
(:max-memory   32.22
 :memory       31.75
 :num-allocs   39252326
 :rlimit-count 132243
 :time         0.16
 :total-time   0.18)
